(set-info :smt-lib-version 2.6)
(set-logic QF_ALIA)
(set-info :notes "Adapted for Array Sum evaluation.
Base file: qlock.induction.10.smt2")
(set-info :source |
Unbounded version of the queue lock algorithm.
|)
(set-info :category "industrial")
(declare-fun x_0 () (Array Int Int))
(declare-fun x_1 () Int)
(declare-fun x_2 () Int)
(declare-fun x_3 () (Array Int Int))
(declare-fun x_4 () (Array Int Int))
(declare-fun x_5 () (Array Int Int))
(declare-fun x_6 () (Array Int Int))
(declare-fun x_7 () (Array Int Int))
(declare-fun x_8 () (Array Int Int))
(declare-fun x_9 () (Array Int Int))
(declare-fun x_10 () (Array Int Int))
(declare-fun x_11 () (Array Int Int))
(declare-fun x_12 () (Array Int Int))
(declare-fun x_13 () Int)
(declare-fun x_14 () Int)
(declare-fun x_15 () (Array Int Int))
(declare-fun x_16 () Int)
(declare-fun x_17 () Bool)
(declare-fun x_18 () Bool)
(declare-fun x_19 () Int)
(declare-fun x_20 () Int)
(declare-fun x_21 () Int)
(declare-fun x_22 () Int)
(declare-fun x_23 () Int)
(declare-fun x_24 () Int)
(declare-fun x_25 () Int)
(declare-fun x_26 () Int)
(declare-fun x_27 () Int)
(declare-fun x_28 () Int)
(declare-fun x_29 () Int)
(declare-fun x_30 () Int)
(declare-fun x_31 () (Array Int Int))
(declare-fun x_32 () Int)
(declare-fun x_33 () Bool)
(declare-fun x_34 () Int)
(declare-fun x_35 () Int)
(declare-fun x_36 () Int)
(declare-fun x_37 () Int)
(declare-fun x_38 () Int)
(declare-fun x_39 () Int)
(declare-fun x_40 () Int)
(declare-fun x_41 () Int)
(declare-fun x_42 () Int)
(declare-fun x_43 () Int)
(declare-fun x_44 () (Array Int Int))
(declare-fun x_45 () Int)
(declare-fun x_46 () Bool)
(declare-fun x_47 () Int)
(declare-fun x_48 () Int)
(declare-fun x_49 () Int)
(declare-fun x_50 () Int)
(declare-fun x_51 () Int)
(declare-fun x_52 () Int)
(declare-fun x_53 () Int)
(declare-fun x_54 () Int)
(declare-fun x_55 () Int)
(declare-fun x_56 () Int)
(declare-fun x_57 () (Array Int Int))
(declare-fun x_58 () Int)
(declare-fun x_59 () Bool)
(declare-fun x_60 () Int)
(declare-fun x_61 () Int)
(declare-fun x_62 () Int)
(declare-fun x_63 () Int)
(declare-fun x_64 () Int)
(declare-fun x_65 () Int)
(declare-fun x_66 () Int)
(declare-fun x_67 () Int)
(declare-fun x_68 () Int)
(declare-fun x_69 () Int)
(declare-fun x_70 () (Array Int Int))
(declare-fun x_71 () Int)
(declare-fun x_72 () Bool)
(declare-fun x_73 () Int)
(declare-fun x_74 () Int)
(declare-fun x_75 () Int)
(declare-fun x_76 () Int)
(declare-fun x_77 () Int)
(declare-fun x_78 () Int)
(declare-fun x_79 () Int)
(declare-fun x_80 () Int)
(declare-fun x_81 () Int)
(declare-fun x_82 () Int)
(declare-fun x_83 () (Array Int Int))
(declare-fun x_84 () Int)
(declare-fun x_85 () Bool)
(declare-fun x_86 () Int)
(declare-fun x_87 () Int)
(declare-fun x_88 () Int)
(declare-fun x_89 () Int)
(declare-fun x_90 () Int)
(declare-fun x_91 () Int)
(declare-fun x_92 () Int)
(declare-fun x_93 () Int)
(declare-fun x_94 () Int)
(declare-fun x_95 () Int)
(declare-fun x_96 () (Array Int Int))
(declare-fun x_97 () Int)
(declare-fun x_98 () Bool)
(declare-fun x_99 () Int)
(declare-fun x_100 () Int)
(declare-fun x_101 () Int)
(declare-fun x_102 () Int)
(declare-fun x_103 () Int)
(declare-fun x_104 () Int)
(declare-fun x_105 () Int)
(declare-fun x_106 () Int)
(declare-fun x_107 () Int)
(declare-fun x_108 () Int)
(declare-fun x_109 () (Array Int Int))
(declare-fun x_110 () Int)
(declare-fun x_111 () Bool)
(declare-fun x_112 () Int)
(declare-fun x_113 () Int)
(declare-fun x_114 () Int)
(declare-fun x_115 () Int)
(declare-fun x_116 () Int)
(declare-fun x_117 () Int)
(declare-fun x_118 () Int)
(declare-fun x_119 () Int)
(declare-fun x_120 () Int)
(declare-fun x_121 () Int)
(declare-fun x_122 () (Array Int Int))
(declare-fun x_123 () Int)
(declare-fun x_124 () Bool)
(declare-fun x_125 () Int)
(declare-fun x_126 () Int)
(declare-fun x_127 () Int)
(declare-fun x_128 () Int)
(declare-fun x_129 () Int)
(declare-fun x_130 () Int)
(declare-fun x_131 () Int)
(declare-fun x_132 () Int)
(declare-fun x_133 () Int)
(declare-fun x_134 () Int)
(declare-fun x_135 () (Array Int Int))
(declare-fun x_136 () Int)
(declare-fun x_137 () Bool)
(declare-fun x_138 () Int)
(declare-fun x_139 () Int)
(declare-fun x_140 () Int)
(declare-fun x_141 () Int)
(declare-fun x_142 () Int)
(declare-fun x_143 () (Array Int Int))
(declare-fun x_144 () Int)
(declare-fun x_145 () Int)
(declare-fun x_146 () Int)
(declare-fun x_147 () Int)
(declare-fun x_148 () Int)
(declare-fun x_149 () Int)
(declare-fun x_150 () Int)
(declare-fun x_151 () Int)
(declare-fun x_152 () Int)
(declare-fun x_153 () Int)
(declare-fun x_154 () Int)
(declare-fun x_155 () Int)
(declare-fun x_156 () Int)
(declare-fun x_157 () Int)
(declare-fun x_158 () Int)
(declare-fun x_159 () Int)
(declare-fun x_160 () Int)
(declare-fun x_161 () Int)
(declare-fun x_162 () Int)
(declare-fun x_163 () Int)
(declare-fun x_164 () Int)
(declare-fun x_165 () Int)
(declare-fun x_166 () Int)
(declare-fun x_167 () Int)
(declare-fun x_168 () Int)
(declare-fun x_169 () Int)
(declare-fun x_170 () Int)
(declare-fun x_171 () Int)
(declare-fun x_172 () Int)
(declare-fun x_173 () Int)
(declare-fun x_174 () Int)
(declare-fun x_175 () Int)
(declare-fun x_176 () Int)
(declare-fun x_177 () Int)
(declare-fun x_178 () Int)
(declare-fun x_179 () Int)
(declare-fun x_180 () Int)
(declare-fun x_181 () Int)
(declare-fun x_182 () Int)
(declare-fun x_183 () Int)
(declare-fun x_184 () Int)
(declare-fun x_185 () Int)
(declare-fun x_186 () Int)
(declare-fun x_187 () Int)
(declare-fun x_188 () Int)
(declare-fun x_189 () Int)
(declare-fun x_190 () Int)
(declare-fun x_191 () Int)
(declare-fun x_192 () Int)
(declare-fun x_193 () Int)
(declare-fun x_194 () Int)
(declare-fun x_195 () Int)
(declare-fun x_196 () Int)
(declare-fun x_197 () Int)
(declare-fun x_198 () Int)
(declare-fun x_199 () Int)
(declare-fun x_200 () Int)
(declare-fun x_201 () Int)
(declare-fun x_202 () Int)
(declare-fun x_203 () Int)
(declare-fun x_204 () Int)
(declare-fun x_205 () Int)
(declare-fun x_206 () Int)
(declare-fun x_207 () Int)
(declare-fun x_208 () Int)
(declare-fun x_209 () Int)
(assert (let ((?v_48 (= x_15 x_12)) (?v_45 (= x_16 x_13)) (?v_46 (= x_17 x_18)) (?v_49 (= x_19 x_20)) (?v_47 (not (<= x_20 x_13))) (?v_43 (= x_31 x_15)) (?v_40 (= x_32 x_16)) (?v_41 (= x_33 x_17)) (?v_44 (= x_34 x_19)) (?v_42 (not (<= x_19 x_16))) (?v_38 (= x_44 x_31)) (?v_35 (= x_45 x_32)) (?v_36 (= x_46 x_33)) (?v_39 (= x_47 x_34)) (?v_37 (not (<= x_34 x_32))) (?v_33 (= x_57 x_44)) (?v_30 (= x_58 x_45)) (?v_31 (= x_59 x_46)) (?v_34 (= x_60 x_47)) (?v_32 (not (<= x_47 x_45))) (?v_28 (= x_70 x_57)) (?v_25 (= x_71 x_58)) (?v_26 (= x_72 x_59)) (?v_29 (= x_73 x_60)) (?v_27 (not (<= x_60 x_58))) (?v_23 (= x_83 x_70)) (?v_20 (= x_84 x_71)) (?v_21 (= x_85 x_72)) (?v_24 (= x_86 x_73)) (?v_22 (not (<= x_73 x_71))) (?v_18 (= x_96 x_83)) (?v_15 (= x_97 x_84)) (?v_16 (= x_98 x_85)) (?v_19 (= x_99 x_86)) (?v_17 (not (<= x_86 x_84))) (?v_13 (= x_109 x_96)) (?v_10 (= x_110 x_97)) (?v_11 (= x_111 x_98)) (?v_14 (= x_112 x_99)) (?v_12 (not (<= x_99 x_97))) (?v_8 (= x_122 x_109)) (?v_5 (= x_123 x_110)) (?v_6 (= x_124 x_111)) (?v_9 (= x_125 x_112)) (?v_7 (not (<= x_112 x_110))) (?v_3 (= x_135 x_122)) (?v_0 (= x_136 x_123)) (?v_1 (= x_137 x_124)) (?v_4 (= x_138 x_125)) (?v_2 (not (<= x_125 x_123)))) (and (and (and (and (and (and (and (and (and (and (and (and (and (and (and (and (and (and (and (and (and (and (and (and (and (and (and (and (and (and (and (and (and (and (and (and (and (and (and (and (and (and (and (and (and (and (and (and (and (and (and (and (and (and (and (and (and (and (and (and (and (and (and (and (and (and (and (and (and (and (and (and (and (and (and (and (and (and (and (and (and (and (and (and (and (and (and (and (and (and (and (and (and (and (and (and (and (and (and (and (and (and (and (and (not (= x_2 x_1)) (= x_148 (select x_11 x_1))) (= x_149 (select x_11 x_2))) (or (not (= x_148 3)) (not (= x_149 3)))) (= x_150 (select x_10 x_1))) (= x_151 (select x_10 x_2))) (or (not (= x_150 3)) (not (= x_151 3)))) (= x_152 (select x_9 x_1))) (= x_153 (select x_9 x_2))) (or (not (= x_152 3)) (not (= x_153 3)))) (= x_154 (select x_8 x_1))) (= x_155 (select x_8 x_2))) (or (not (= x_154 3)) (not (= x_155 3)))) (= x_156 (select x_7 x_1))) (= x_157 (select x_7 x_2))) (or (not (= x_156 3)) (not (= x_157 3)))) (= x_158 (select x_6 x_1))) (= x_159 (select x_6 x_2))) (or (not (= x_158 3)) (not (= x_159 3)))) (= x_160 (select x_5 x_1))) (= x_161 (select x_5 x_2))) (or (not (= x_160 3)) (not (= x_161 3)))) (= x_162 (select x_4 x_1))) (= x_163 (select x_4 x_2))) (or (not (= x_162 3)) (not (= x_163 3)))) (= x_164 (select x_3 x_1))) (= x_165 (select x_3 x_2))) (or (not (= x_164 3)) (not (= x_165 3)))) (= x_166 (select x_0 x_1))) (= x_167 (select x_0 x_2))) (or (not (= x_166 3)) (not (= x_167 3)))) (= x_168 (select x_12 x_13))) (= x_14 x_168)) (= x_169 (select x_15 x_16))) (= x_30 x_169)) (= x_170 (select x_31 x_32))) (= x_43 x_170)) (= x_171 (select x_44 x_45))) (= x_56 x_171)) (= x_172 (select x_57 x_58))) (= x_69 x_172)) (= x_173 (select x_70 x_71))) (= x_82 x_173)) (= x_174 (select x_83 x_84))) (= x_95 x_174)) (= x_175 (select x_96 x_97))) (= x_108 x_175)) (= x_176 (select x_109 x_110))) (= x_121 x_176)) (= x_177 (select x_122 x_123))) (= x_134 x_177)) (= x_139 (+ x_126 1))) (= x_178 (select x_11 x_141))) (= x_179 (select x_11 x_144))) (= x_180 (select x_11 x_146))) (or (or (or (and (and (and (and (and (and (and (= x_140 0) (= x_138 (+ x_125 1))) ?v_0) ?v_1) (= x_142 x_141)) (= x_178 1)) (= x_143 (store x_11 x_141 2))) (= x_135 (store x_122 x_125 x_141))) (and (and (and (and (and (and (and (and (and (= x_140 1) ?v_2) ?v_0) ?v_1) ?v_3) ?v_4) (= x_145 x_144)) (= x_179 2)) (= x_134 x_144)) (= x_143 (store x_11 x_144 3)))) (and (and (and (and (and (and (and (and (and (= x_140 2) ?v_2) (= x_136 (+ x_123 1))) ?v_1) ?v_3) ?v_4) (= x_147 x_146)) (= x_180 3)) (or (not (<= x_126 12)) (= x_134 x_146))) (= x_143 (store x_11 x_146 1)))) (and (and (and (and (and (= x_140 3) ?v_3) ?v_0) ?v_1) (= x_143 x_11)) ?v_4))) (= x_126 (+ x_113 1))) (= x_181 (select x_10 x_128))) (= x_182 (select x_10 x_130))) (= x_183 (select x_10 x_132))) (or (or (or (and (and (and (and (and (and (and (= x_127 0) (= x_125 (+ x_112 1))) ?v_5) ?v_6) (= x_129 x_128)) (= x_181 1)) (= x_11 (store x_10 x_128 2))) (= x_122 (store x_109 x_112 x_128))) (and (and (and (and (and (and (and (and (and (= x_127 1) ?v_7) ?v_5) ?v_6) ?v_8) ?v_9) (= x_131 x_130)) (= x_182 2)) (= x_121 x_130)) (= x_11 (store x_10 x_130 3)))) (and (and (and (and (and (and (and (and (and (= x_127 2) ?v_7) (= x_123 (+ x_110 1))) ?v_6) ?v_8) ?v_9) (= x_133 x_132)) (= x_183 3)) (or (not (<= x_113 12)) (= x_121 x_132))) (= x_11 (store x_10 x_132 1)))) (and (and (and (and (and (= x_127 3) ?v_8) ?v_5) ?v_6) (= x_11 x_10)) ?v_9))) (= x_113 (+ x_100 1))) (= x_184 (select x_9 x_115))) (= x_185 (select x_9 x_117))) (= x_186 (select x_9 x_119))) (or (or (or (and (and (and (and (and (and (and (= x_114 0) (= x_112 (+ x_99 1))) ?v_10) ?v_11) (= x_116 x_115)) (= x_184 1)) (= x_10 (store x_9 x_115 2))) (= x_109 (store x_96 x_99 x_115))) (and (and (and (and (and (and (and (and (and (= x_114 1) ?v_12) ?v_10) ?v_11) ?v_13) ?v_14) (= x_118 x_117)) (= x_185 2)) (= x_108 x_117)) (= x_10 (store x_9 x_117 3)))) (and (and (and (and (and (and (and (and (and (= x_114 2) ?v_12) (= x_110 (+ x_97 1))) ?v_11) ?v_13) ?v_14) (= x_120 x_119)) (= x_186 3)) (or (not (<= x_100 12)) (= x_108 x_119))) (= x_10 (store x_9 x_119 1)))) (and (and (and (and (and (= x_114 3) ?v_13) ?v_10) ?v_11) (= x_10 x_9)) ?v_14))) (= x_100 (+ x_87 1))) (= x_187 (select x_8 x_102))) (= x_188 (select x_8 x_104))) (= x_189 (select x_8 x_106))) (or (or (or (and (and (and (and (and (and (and (= x_101 0) (= x_99 (+ x_86 1))) ?v_15) ?v_16) (= x_103 x_102)) (= x_187 1)) (= x_9 (store x_8 x_102 2))) (= x_96 (store x_83 x_86 x_102))) (and (and (and (and (and (and (and (and (and (= x_101 1) ?v_17) ?v_15) ?v_16) ?v_18) ?v_19) (= x_105 x_104)) (= x_188 2)) (= x_95 x_104)) (= x_9 (store x_8 x_104 3)))) (and (and (and (and (and (and (and (and (and (= x_101 2) ?v_17) (= x_97 (+ x_84 1))) ?v_16) ?v_18) ?v_19) (= x_107 x_106)) (= x_189 3)) (or (not (<= x_87 12)) (= x_95 x_106))) (= x_9 (store x_8 x_106 1)))) (and (and (and (and (and (= x_101 3) ?v_18) ?v_15) ?v_16) (= x_9 x_8)) ?v_19))) (= x_87 (+ x_74 1))) (= x_190 (select x_7 x_89))) (= x_191 (select x_7 x_91))) (= x_192 (select x_7 x_93))) (or (or (or (and (and (and (and (and (and (and (= x_88 0) (= x_86 (+ x_73 1))) ?v_20) ?v_21) (= x_90 x_89)) (= x_190 1)) (= x_8 (store x_7 x_89 2))) (= x_83 (store x_70 x_73 x_89))) (and (and (and (and (and (and (and (and (and (= x_88 1) ?v_22) ?v_20) ?v_21) ?v_23) ?v_24) (= x_92 x_91)) (= x_191 2)) (= x_82 x_91)) (= x_8 (store x_7 x_91 3)))) (and (and (and (and (and (and (and (and (and (= x_88 2) ?v_22) (= x_84 (+ x_71 1))) ?v_21) ?v_23) ?v_24) (= x_94 x_93)) (= x_192 3)) (or (not (<= x_74 12)) (= x_82 x_93))) (= x_8 (store x_7 x_93 1)))) (and (and (and (and (and (= x_88 3) ?v_23) ?v_20) ?v_21) (= x_8 x_7)) ?v_24))) (= x_74 (+ x_61 1))) (= x_193 (select x_6 x_76))) (= x_194 (select x_6 x_78))) (= x_195 (select x_6 x_80))) (or (or (or (and (and (and (and (and (and (and (= x_75 0) (= x_73 (+ x_60 1))) ?v_25) ?v_26) (= x_77 x_76)) (= x_193 1)) (= x_7 (store x_6 x_76 2))) (= x_70 (store x_57 x_60 x_76))) (and (and (and (and (and (and (and (and (and (= x_75 1) ?v_27) ?v_25) ?v_26) ?v_28) ?v_29) (= x_79 x_78)) (= x_194 2)) (= x_69 x_78)) (= x_7 (store x_6 x_78 3)))) (and (and (and (and (and (and (and (and (and (= x_75 2) ?v_27) (= x_71 (+ x_58 1))) ?v_26) ?v_28) ?v_29) (= x_81 x_80)) (= x_195 3)) (or (not (<= x_61 12)) (= x_69 x_80))) (= x_7 (store x_6 x_80 1)))) (and (and (and (and (and (= x_75 3) ?v_28) ?v_25) ?v_26) (= x_7 x_6)) ?v_29))) (= x_61 (+ x_48 1))) (= x_196 (select x_5 x_63))) (= x_197 (select x_5 x_65))) (= x_198 (select x_5 x_67))) (or (or (or (and (and (and (and (and (and (and (= x_62 0) (= x_60 (+ x_47 1))) ?v_30) ?v_31) (= x_64 x_63)) (= x_196 1)) (= x_6 (store x_5 x_63 2))) (= x_57 (store x_44 x_47 x_63))) (and (and (and (and (and (and (and (and (and (= x_62 1) ?v_32) ?v_30) ?v_31) ?v_33) ?v_34) (= x_66 x_65)) (= x_197 2)) (= x_56 x_65)) (= x_6 (store x_5 x_65 3)))) (and (and (and (and (and (and (and (and (and (= x_62 2) ?v_32) (= x_58 (+ x_45 1))) ?v_31) ?v_33) ?v_34) (= x_68 x_67)) (= x_198 3)) (or (not (<= x_48 12)) (= x_56 x_67))) (= x_6 (store x_5 x_67 1)))) (and (and (and (and (and (= x_62 3) ?v_33) ?v_30) ?v_31) (= x_6 x_5)) ?v_34))) (= x_48 (+ x_35 1))) (= x_199 (select x_4 x_50))) (= x_200 (select x_4 x_52))) (= x_201 (select x_4 x_54))) (or (or (or (and (and (and (and (and (and (and (= x_49 0) (= x_47 (+ x_34 1))) ?v_35) ?v_36) (= x_51 x_50)) (= x_199 1)) (= x_5 (store x_4 x_50 2))) (= x_44 (store x_31 x_34 x_50))) (and (and (and (and (and (and (and (and (and (= x_49 1) ?v_37) ?v_35) ?v_36) ?v_38) ?v_39) (= x_53 x_52)) (= x_200 2)) (= x_43 x_52)) (= x_5 (store x_4 x_52 3)))) (and (and (and (and (and (and (and (and (and (= x_49 2) ?v_37) (= x_45 (+ x_32 1))) ?v_36) ?v_38) ?v_39) (= x_55 x_54)) (= x_201 3)) (or (not (<= x_35 12)) (= x_43 x_54))) (= x_5 (store x_4 x_54 1)))) (and (and (and (and (and (= x_49 3) ?v_38) ?v_35) ?v_36) (= x_5 x_4)) ?v_39))) (= x_35 (+ x_21 1))) (= x_202 (select x_3 x_37))) (= x_203 (select x_3 x_39))) (= x_204 (select x_3 x_41))) (or (or (or (and (and (and (and (and (and (and (= x_36 0) (= x_34 (+ x_19 1))) ?v_40) ?v_41) (= x_38 x_37)) (= x_202 1)) (= x_4 (store x_3 x_37 2))) (= x_31 (store x_15 x_19 x_37))) (and (and (and (and (and (and (and (and (and (= x_36 1) ?v_42) ?v_40) ?v_41) ?v_43) ?v_44) (= x_40 x_39)) (= x_203 2)) (= x_30 x_39)) (= x_4 (store x_3 x_39 3)))) (and (and (and (and (and (and (and (and (and (= x_36 2) ?v_42) (= x_32 (+ x_16 1))) ?v_41) ?v_43) ?v_44) (= x_42 x_41)) (= x_204 3)) (or (not (<= x_21 12)) (= x_30 x_41))) (= x_4 (store x_3 x_41 1)))) (and (and (and (and (and (= x_36 3) ?v_43) ?v_40) ?v_41) (= x_4 x_3)) ?v_44))) (= x_21 (+ x_22 1))) (= x_205 (select x_0 x_24))) (= x_206 (select x_0 x_26))) (= x_207 (select x_0 x_28))) (or (or (or (and (and (and (and (and (and (and (= x_23 0) (= x_19 (+ x_20 1))) ?v_45) ?v_46) (= x_25 x_24)) (= x_205 1)) (= x_3 (store x_0 x_24 2))) (= x_15 (store x_12 x_20 x_24))) (and (and (and (and (and (and (and (and (and (= x_23 1) ?v_47) ?v_45) ?v_46) ?v_48) ?v_49) (= x_27 x_26)) (= x_206 2)) (= x_14 x_26)) (= x_3 (store x_0 x_26 3)))) (and (and (and (and (and (and (and (and (and (= x_23 2) ?v_47) (= x_16 (+ x_13 1))) ?v_46) ?v_48) ?v_49) (= x_29 x_28)) (= x_207 3)) (or (not (<= x_22 12)) (= x_14 x_28))) (= x_3 (store x_0 x_28 1)))) (and (and (and (and (and (= x_23 3) ?v_48) ?v_45) ?v_46) (= x_3 x_0)) ?v_49))) (= x_208 (select x_143 x_1))) (= x_208 3)) (= x_209 (select x_143 x_2))) (= x_209 3))))
; --- Injected Array Sum Constraint ---
(assert (sum x_31 (+ x_107 (+ x_142 x_74))))
(assert (sum x_31 (+ x_189 (+ x_28 x_64))))
(assert (sum x_10 (+ x_88 (+ x_116 x_94))))
(assert (sum x_10 (+ x_168 (+ x_86 x_171))))
(assert (sum x_0 (+ x_106 (+ x_168 x_195))))
(assert (sum x_4 (+ x_60 (+ x_43 x_167))))
(assert (sum x_0 (+ x_95 (+ x_25 x_194))))
(assert (sum x_6 (+ x_50 (+ x_67 x_183))))
(assert (sum x_11 (+ x_84 (+ x_54 x_128))))
(assert (sum x_8 (+ x_204 (+ x_133 x_52))))
(check-sat)
(exit)